c IDP Project of Reza Sefidgar at Chair M9 of Technische Universität München.2014 
c https://www-m9.ma.tum.de/graph-algorithms/mst-prim/index_en.html
c jabodetabek stations 
c
p sp 80 160
c graph contains 80 nodes and 160 arcs
c
a 1 2 90
a 2 1 90
a 2 3 112
a 3 2 112
a 3 4 101
a 4 3 101
a 4 5 142
a 5 4 142
a 5 6 140
a 6 5 140
a 6 7 64
a 7 6 64
a 7 8 136
a 8 7 136
a 8 9 85
a 9 8 85
a 9 10 114
a 10 9 114
a 10 11 95
a 11 10 95
a 11 12 69
a 12 11 69
a 12 13 229
a 13 12 229
a 13 14 122
a 14 13 122
a 14 15 255
a 15 14 255
a 15 16 458
a 16 15 458
a 16 17 106
a 17 16 106
a 17 18 80
a 18 17 80
a 18 19 87
a 19 18 87
a 19 20 54
a 20 19 54
a 20 21 102
a 21 20 102
a 21 22 69
a 22 21 69
a 22 23 95
a 23 22 95
a 23 24 95
a 24 23 95
a 24 25 173
a 25 24 173
a 25 26 73
a 26 25 73
a 26 27 77
a 27 26 77
a 27 28 173
a 28 27 173
a 28 29 141
a 29 28 141
a 22 30 148
a 30 22 148
a 30 31 146
a 31 30 146
a 31 32 73
a 32 31 73
a 32 33 82
a 33 32 82
a 33 34 84
a 34 33 84
a 34 35 95
a 35 34 95
a 35 36 170
a 36 35 170
a 36 37 138
a 37 36 138
a 37 38 58
a 38 37 58
a 38 39 127
a 39 38 127
a 39 40 62
a 40 39 62
a 40 41 144
a 41 40 144
a 41 42 97
a 42 41 97
a 42 43 284
a 43 42 284
a 43 44 213
a 44 43 213

a 44 45 164
a 45 44 164
a 45 46 240
a 46 45 240
a 46 47 125
a 47 46 125
a 43 48 290
a 48 43 290
a 48 49 242
a 49 48 242
a 49 50 420
a 50 49 420
a 30 51 89
a 51 30 89
a 51 52 89
a 52 51 89
a 52 53 45
a 53 52 45
a 53 54 113
a 54 53 113
a 54 55 178
a 55 54 178
a 55 56 209
a 56 55 209
a 56 57 348
a 57 56 348
a 57 58 122
a 58 57 122
a 58 59 110
a 59 58 110

a 59 60 255
a 60 59 255
a 60 61 135
a 61 50 135
a 61 62 100
a 62 61 100

a 62 63 141
a 63 62 141
a 63 64 334
a 64 63 334
a 64 65 393
a 65 64 393
a 65 66 150
a 66 65 150
a 66 67 218
a 67 66 218
a 67 68 166
a 68 67 166
a 68 69 148
a 69 68 148
a 69 70 104
a 70 69 104
a 70 71 408
a 71 70 408
a 71 72 557
a 72 71 557
a 54 11 203
a 11 54 203
a 30 73 90
a 73 30 90
a 73 74 95
a 74 73 95
a 74 75 61
a 75 74 61
a 75 76 61
a 76 75 61
a 76 77 40
a 77 76 40
a 77 78 65
a 78 77 65
a 78 79 57
a 79 78 57
a 79 80 83
a 80 79 83
a 80 13 76
a 13 80 76



a 69 70 133
a 69 68 133
a 69 71 122
a 71 69 122
a 71 74 129
a 74 71 129
a 54 56 304
a 56 54 304
a 56 57 277
a 57 56 277
a 57 58 117
a 58 57 117
a 58 59 124
a 59 58 124
a 59 60 277
a 60 59 277
a 60 61 225
a 61 60 225
a 53 10 325
a 10 53 325
a 29 72 144
a 72 29 144
a 72 73 152
a 73 72 152
a 73 75 197
a 75 73 197
a 75 76 63
a 76 75 63
a 76 77 105
a 77 76 105
a 77 78 91
a 78 77 91
a 78 79 133
a 79 78 133
a 79 12 122
a 12 79 122